Problem:    Transporte4Gallinas
Rows:       72
Columns:    64
Non-zeros:  248
Status:     OPTIMAL
Objective:  Z = 156475 (MINimum)

   No.   Row name   St   Activity     Lower bound   Upper bound    Marginal
------ ------------ -- ------------- ------------- ------------- -------------
     1 Z            B         156475                             
     2 cantMaxdeSilosaGranjas[1,1]
                    B              0                          30 
     3 cantMaxdeSilosaGranjas[1,2]
                    NU             5                           5          -987 
     4 cantMaxdeSilosaGranjas[1,3]
                    B              0                          -0 
     5 cantMaxdeSilosaGranjas[1,4]
                    B             15                          40 
     6 cantMaxdeSilosaGranjas[2,1]
                    B              0                          -0 
     7 cantMaxdeSilosaGranjas[2,2]
                    B              0                          -0 
     8 cantMaxdeSilosaGranjas[2,3]
                    B              0                           5 
     9 cantMaxdeSilosaGranjas[2,4]
                    B              5                          90 
    10 cantMaxdeSilosaGranjas[3,1]
                    NU            10                          10            -7 
    11 cantMaxdeSilosaGranjas[3,2]
                    NU            40                          40          -989 
    12 cantMaxdeSilosaGranjas[3,3]
                    B             20                          30 
    13 cantMaxdeSilosaGranjas[3,4]
                    NU            40                          40            -4 
    14 cantMaxdeGranjasJaGranjasK[1,1,1]
                    B              0                          -0 
    15 cantMaxdeGranjasJaGranjasK[1,1,2]
                    B             10                          50 
    16 cantMaxdeGranjasJaGranjasK[1,1,3]
                    B              0                          -0 
    17 cantMaxdeGranjasJaGranjasK[1,1,4]
                    B              0                          -0 
    18 cantMaxdeGranjasJaGranjasK[1,2,1]
                    B             45                          50 
    19 cantMaxdeGranjasJaGranjasK[1,2,2]
                    B              0                          -0 
    20 cantMaxdeGranjasJaGranjasK[1,2,3]
                    B              0                          50 
    21 cantMaxdeGranjasJaGranjasK[1,2,4]
                    B              0                          -0 
    22 cantMaxdeGranjasJaGranjasK[1,3,1]
                    B              0                          -0 
    23 cantMaxdeGranjasJaGranjasK[1,3,2]
                    B              0                          50 
    24 cantMaxdeGranjasJaGranjasK[1,3,3]
                    B              0                          -0 
    25 cantMaxdeGranjasJaGranjasK[1,3,4]
                    B             20                          50 
    26 cantMaxdeGranjasJaGranjasK[1,4,1]
                    B              0                          -0 
    27 cantMaxdeGranjasJaGranjasK[1,4,2]
                    B              0                          -0 
    28 cantMaxdeGranjasJaGranjasK[1,4,3]
                    NU            50                          50         < eps
    29 cantMaxdeGranjasJaGranjasK[1,4,4]
                    B              0                          -0 
    30 cantMaxdeGranjasJaGranjasK[2,1,1]
                    B              0                          -0 
    31 cantMaxdeGranjasJaGranjasK[2,1,2]
                    B              0                          50 
    32 cantMaxdeGranjasJaGranjasK[2,1,3]
                    B              0                          -0 
    33 cantMaxdeGranjasJaGranjasK[2,1,4]
                    B              0                          -0 
    34 cantMaxdeGranjasJaGranjasK[2,2,1]
                    B              0                          50 
    35 cantMaxdeGranjasJaGranjasK[2,2,2]
                    B              0                          -0 
    36 cantMaxdeGranjasJaGranjasK[2,2,3]
                    B              0                          50 
    37 cantMaxdeGranjasJaGranjasK[2,2,4]
                    B              0                          -0 
    38 cantMaxdeGranjasJaGranjasK[2,3,1]
                    B              0                          -0 
    39 cantMaxdeGranjasJaGranjasK[2,3,2]
                    B              0                          50 
    40 cantMaxdeGranjasJaGranjasK[2,3,3]
                    B              0                          -0 
    41 cantMaxdeGranjasJaGranjasK[2,3,4]
                    B              0                          50 
    42 cantMaxdeGranjasJaGranjasK[2,4,1]
                    B              0                          -0 
    43 cantMaxdeGranjasJaGranjasK[2,4,2]
                    B              0                          -0 
    44 cantMaxdeGranjasJaGranjasK[2,4,3]
                    B             10                          50 
    45 cantMaxdeGranjasJaGranjasK[2,4,4]
                    B              0                          -0 
    46 cantMaxdeGranjasJaGranjasK[3,1,1]
                    B              0                          -0 
    47 cantMaxdeGranjasJaGranjasK[3,1,2]
                    B              0                          50 
    48 cantMaxdeGranjasJaGranjasK[3,1,3]
                    B              0                          -0 
    49 cantMaxdeGranjasJaGranjasK[3,1,4]
                    B              0                          -0 
    50 cantMaxdeGranjasJaGranjasK[3,2,1]
                    B              0                          50 
    51 cantMaxdeGranjasJaGranjasK[3,2,2]
                    B              0                          -0 
    52 cantMaxdeGranjasJaGranjasK[3,2,3]
                    B              0                          50 
    53 cantMaxdeGranjasJaGranjasK[3,2,4]
                    B              0                          -0 
    54 cantMaxdeGranjasJaGranjasK[3,3,1]
                    B              0                          -0 
    55 cantMaxdeGranjasJaGranjasK[3,3,2]
                    B              0                          50 
    56 cantMaxdeGranjasJaGranjasK[3,3,3]
                    B              0                          -0 
    57 cantMaxdeGranjasJaGranjasK[3,3,4]
                    B              0                          50 
    58 cantMaxdeGranjasJaGranjasK[3,4,1]
                    B              0                          -0 
    59 cantMaxdeGranjasJaGranjasK[3,4,2]
                    B              0                          -0 
    60 cantMaxdeGranjasJaGranjasK[3,4,3]
                    B              0                          50 
    61 cantMaxdeGranjasJaGranjasK[3,4,4]
                    B              0                          -0 
    62 flujoGranjasIntermedias[1]
                    NU             0                          -0            -9 
    63 flujoGranjasIntermedias[2]
                    NU             0                          -0          -995 
    64 flujoGranjasIntermedias[3]
                    NU             0                          -0            -2 
    65 flujoGranjasIntermedias[4]
                    NU             0                          -0            -7 
    66 ofertaAlimentoSilos[1]
                    NU            20                          20            -4 
    67 ofertaAlimentoSilos[2]
                    B              5                          20 
    68 ofertaAlimentoSilos[3]
                    B            110                         200 
    69 demandaAlimentoGranja[1]
                    NS           200           200             =          1000 
    70 demandaAlimentoGranja[2]
                    NS            10            10             =            12 
    71 demandaAlimentoGranja[3]
                    NS            60            60             =            16 
    72 demandaAlimentoGranja[4]
                    NS            20            20             =            10 

   No. Column name  St   Activity     Lower bound   Upper bound    Marginal
------ ------------ -- ------------- ------------- ------------- -------------
     1 X[1,1]       B              0             0               
     2 X[1,2]       B              5             0               
     3 X[1,3]       NL             0             0                       10001 
     4 X[1,4]       B             15             0               
     5 X[2,1]       NL             0             0                        9990 
     6 X[2,2]       NL             0             0                        9004 
     7 X[2,3]       NL             0             0                           3 
     8 X[2,4]       B              5             0               
     9 X[3,1]       B             10             0               
    10 X[3,2]       B             40             0               
    11 X[3,3]       B             20             0               
    12 X[3,4]       B             40             0               
    13 Y[1,1,1]     NL             0             0                        9008 
    14 Y[1,1,2]     B             10             0               
    15 Y[1,1,3]     NL             0             0                        9992 
    16 Y[1,1,4]     NL             0             0                        9998 
    17 Y[1,2,1]     B             45             0               
    18 Y[1,2,2]     NL             0             0                       10982 
    19 Y[1,2,3]     NL             0             0                         989 
    20 Y[1,2,4]     NL             0             0                       10984 
    21 Y[1,3,1]     NL             0             0                        9001 
    22 Y[1,3,2]     NL             0             0                           1 
    23 Y[1,3,3]     NL             0             0                        9985 
    24 Y[1,3,4]     B             20             0               
    25 Y[1,4,1]     NL             0             0                        9006 
    26 Y[1,4,2]     NL             0             0                        9994 
    27 Y[1,4,3]     B             50             0               
    28 Y[1,4,4]     NL             0             0                        9996 
    29 Y[2,1,1]     NL             0             0                        9008 
    30 Y[2,1,2]     NL             0             0                       < eps
    31 Y[2,1,3]     NL             0             0                        9992 
    32 Y[2,1,4]     NL             0             0                        9998 
    33 Y[2,2,1]     NL             0             0                       < eps
    34 Y[2,2,2]     NL             0             0                       10982 
    35 Y[2,2,3]     NL             0             0                         989 
    36 Y[2,2,4]     NL             0             0                       10984 
    37 Y[2,3,1]     NL             0             0                        9001 
    38 Y[2,3,2]     NL             0             0                           1 
    39 Y[2,3,3]     NL             0             0                        9985 
    40 Y[2,3,4]     NL             0             0                       < eps
    41 Y[2,4,1]     NL             0             0                        9006 
    42 Y[2,4,2]     NL             0             0                        9994 
    43 Y[2,4,3]     B             10             0               
    44 Y[2,4,4]     NL             0             0                        9996 
    45 Y[3,1,1]     NL             0             0                        9008 
    46 Y[3,1,2]     NL             0             0                       < eps
    47 Y[3,1,3]     NL             0             0                        9992 
    48 Y[3,1,4]     NL             0             0                        9998 
    49 Y[3,2,1]     NL             0             0                       < eps
    50 Y[3,2,2]     NL             0             0                       10982 
    51 Y[3,2,3]     NL             0             0                         989 
    52 Y[3,2,4]     NL             0             0                       10984 
    53 Y[3,3,1]     NL             0             0                        9001 
    54 Y[3,3,2]     NL             0             0                           1 
    55 Y[3,3,3]     NL             0             0                        9985 
    56 Y[3,3,4]     NL             0             0                       < eps
    57 Y[3,4,1]     NL             0             0                        9006 
    58 Y[3,4,2]     NL             0             0                        9994 
    59 Y[3,4,3]     NL             0             0                       < eps
    60 Y[3,4,4]     NL             0             0                        9996 
    61 W[1]         B            155             0               
    62 W[2]         NL             0             0                         988 
    63 W[3]         NL             0             0                         984 
    64 W[4]         NL             0             0                         990 

Karush-Kuhn-Tucker optimality conditions:

KKT.PE: max.abs.err = 0.00e+00 on row 0
        max.rel.err = 0.00e+00 on row 0
        High quality

KKT.PB: max.abs.err = 0.00e+00 on row 0
        max.rel.err = 0.00e+00 on row 0
        High quality

KKT.DE: max.abs.err = 0.00e+00 on column 0
        max.rel.err = 0.00e+00 on column 0
        High quality

KKT.DB: max.abs.err = 0.00e+00 on row 0
        max.rel.err = 0.00e+00 on row 0
        High quality

End of output
